# caculate radial distribution function (RDF) of  sample !(you can change cutoff of EAM potential function in specifed file)
# input dumpfile that include some configurations of sample within nvt equilibiration.
# example to use rerun              
read_data 	sample.data   #creat a box of simulation
pair_style      eam/alloy
pair_coeff      * * ZrCu.lammps.eam Zr Cu

group 		cu type 2
group 		zr type 1
timestep        0.002
#variables that could be used by yourself. 
variable	n equal count(all)
variable 	p equal pe/$n
variable 	v equal vol/$n
variable 	t equal temp 
variable 	s equal step
variable 	pres equal press

neighbor	 3  bin			#could be ignored
neigh_modify	every 3 delay 0 check yes #..
#computations that you want
compute         myRDF all rdf 500 1 1 1 2 2 1 2 2
compute         rdf all rdf 500
#compute 	Ccu cu cluster/atom  
#compute 	Czr zr cluster/atom
#compute 	CNcu cu coord/atom 3.735 2 1 *
compute 	CNzr zr coord/atom 4.095 1 2 *


#fix for output or ..
fix		21 all ave/time  10000 50 500000 c_myRDF file rdf.300k mode vector
fix		22 all ave/time  10000 50 500000 c_rdf file rdf1.300k mode vector
#fix 		1 cu ave/atom 	10000 50 500000 c_CNcu[1] c_CNcu[2] c_CNcu[3] 
fix 		2 zr ave/atom   10000 50 500000 c_CNzr[1] c_CNzr[2] c_CNzr[3]
#dump 		1 cu custom 500000  cn.dat id type c_CNcu
#dump 		2 zr custom 500000 cn1.dat id type c_CNzr
#dump		3 cu custom 500000 cn2.dat id type f_1[1] f_1[2] f_1[3]
dump 		4 zr custom 500000 cn3.dat id type f_2[1] f_2[2] f_2[3]

#rerun section
rerun 		dump.s1.300.50.lammpstrj first 10000 every 10000 dump x y z 
